17	4
22	16	18	21	
0	0	0	0	0	3	2	3	4	
4	0	0	10	6	2	7	11	
6	6	0	0	3	2	13	17	
5	0	2	0	0	3	5	17	17	
5	0	0	0	9	2	6	8	
125	0	0	1	9	3	9	12	15	
200	0	4	0	7	1	14	
200	1	1	0	8	2	10	17	
175	7	0	0	3	1	17	
25	1	0	0	0	1	17	
100	7	9	10	0	3	17	17	17	
125	10	7	8	7	2	16	17	
4	7	0	0	0	1	15	
6	0	0	10	5	2	17	17	
10	0	4	7	0	1	17	
2	0	10	0	8	3	17	17	17	
0	0	0	0	0	0	
